../spot5/404.spot 100 4 710 164
4 4 4 4 2 2 2 2 4 4 4 2 2 2 2 2 2 2 4 4 2 2 2 2 2 2 2 2 4 4 2 4 2 4 2 2 2 2 2 2 2 2 2 2 2 2 2 2 2 4 2 2 2 2 2 2 4 4 2 4 2 2 2 2 2 2 2 4 2 2 2 2 2 2 2 2 2 2 2 2 2 4 4 4 4 4 2 4 2 2 4 2 2 4 2 2 2 4 4 4
2 63 65 0 1
0 0 164
2 2 0 0 3
2 2 164
1 1 164
0 0 164
2 12 19 0 2
0 2 164
0 0 164
2 11 20 0 1
0 0 164
2 57 62 0 2
2 0 164
0 0 164
2 51 54 0 1
0 0 164
2 10 8 0 3
2 2 164
1 1 164
0 0 164
2 92 85 0 2
0 2 164
0 0 164
2 99 95 0 2
2 0 164
0 0 164
2 21 9 0 2
0 2 164
0 0 164
2 21 8 0 2
0 2 164
0 0 164
2 57 50 0 2
2 0 164
0 0 164
2 91 99 0 2
0 2 164
0 0 164
2 92 93 0 2
0 2 164
0 0 164
2 8 18 0 3
2 2 164
1 1 164
0 0 164
2 58 52 0 1
0 0 164
2 4 11 0 1
0 0 164
2 46 49 0 2
0 2 164
0 0 164
2 19 9 0 3
2 2 164
1 1 164
0 0 164
2 86 94 0 1
0 0 164
2 54 62 0 1
0 0 164
2 28 34 0 2
2 0 164
0 0 164
2 99 98 0 3
2 2 164
1 1 164
0 0 164
2 33 34 0 2
2 0 164
0 0 164
2 85 87 0 3
2 2 164
1 1 164
0 0 164
2 68 56 0 2
0 2 164
0 0 164
2 96 95 0 1
0 0 164
2 59 52 0 2
2 0 164
0 0 164
2 51 49 0 2
0 2 164
0 0 164
2 16 19 0 2
0 2 164
0 0 164
2 14 18 0 1
0 1 164
2 66 64 0 1
0 0 164
2 53 54 0 1
0 0 164
2 91 97 0 2
0 2 164
0 0 164
2 22 23 0 1
0 0 164
2 63 60 0 1
0 0 164
2 94 95 0 1
0 0 164
2 3 5 0 1
1 0 164
2 90 95 0 2
2 0 164
0 0 164
2 11 8 0 2
0 2 164
0 0 164
2 44 53 0 1
0 0 164
2 19 14 0 1
1 0 164
2 46 52 0 1
0 0 164
2 21 11 0 1
0 0 164
2 53 61 0 1
0 0 164
3 40 71 59 0 1
0 0 1 164
3 39 71 57 0 1
0 0 1 164
2 94 98 0 2
0 2 164
0 0 164
2 93 95 0 2
2 0 164
0 0 164
2 11 34 0 1
0 0 164
2 45 56 0 2
0 2 164
0 0 164
2 68 58 0 1
0 0 164
2 61 59 0 2
0 2 164
0 0 164
2 90 98 0 3
2 2 164
1 1 164
0 0 164
2 68 67 0 2
0 2 164
0 0 164
2 50 55 0 1
0 0 164
2 32 50 0 1
0 0 164
2 20 9 0 2
0 2 164
0 0 164
2 30 50 0 1
0 0 164
2 32 60 0 1
0 0 164
2 44 59 0 2
0 2 164
0 0 164
2 20 8 0 2
0 2 164
0 0 164
2 33 32 0 2
2 0 164
0 0 164
2 46 45 0 1
0 0 164
3 48 38 71 0 1
0 0 0 164
2 65 62 0 1
0 0 164
2 39 38 0 1
0 0 164
2 63 54 0 1
0 0 164
2 74 72 0 1
0 0 164
2 80 78 0 1
0 0 164
3 38 71 59 0 1
0 0 1 164
2 22 17 0 1
0 0 164
2 58 64 0 1
0 0 164
2 41 56 0 2
0 2 164
0 0 164
2 45 58 0 1
0 0 164
2 45 67 0 2
0 2 164
0 0 164
2 49 62 0 2
2 0 164
0 0 164
2 91 85 0 2
0 2 164
0 0 164
2 60 62 0 1
0 0 164
2 61 62 0 1
0 0 164
2 59 64 0 2
2 0 164
0 0 164
2 63 61 0 1
0 0 164
2 8 9 0 3
2 2 164
1 1 164
0 0 164
2 59 47 0 1
1 0 164
2 44 62 0 1
0 0 164
2 60 65 0 1
0 0 164
2 61 65 0 1
0 0 164
2 86 98 0 2
0 2 164
0 0 164
2 66 58 0 1
0 0 164
2 56 62 0 2
2 0 164
0 0 164
2 85 82 0 3
2 2 164
1 1 164
0 0 164
2 26 23 0 1
0 0 164
2 46 64 0 1
0 0 164
2 41 58 0 1
0 0 164
2 48 49 0 1
0 1 164
2 91 93 0 2
0 2 164
0 0 164
2 7 10 0 2
0 2 164
0 0 164
2 56 65 0 2
2 0 164
0 0 164
2 70 67 0 2
0 2 164
0 0 164
2 89 94 0 1
0 0 164
2 8 14 0 1
1 0 164
2 51 64 0 1
0 0 164
2 33 28 0 3
2 2 164
1 1 164
0 0 164
2 58 56 0 2
0 2 164
0 0 164
2 67 62 0 2
2 0 164
0 0 164
2 49 50 0 2
2 0 164
0 0 164
2 55 54 0 1
0 0 164
2 67 65 0 2
2 0 164
0 0 164
2 61 50 0 1
0 0 164
2 61 60 0 1
0 0 164
2 59 56 0 3
2 2 164
1 1 164
0 0 164
2 86 92 0 1
0 0 164
2 20 17 0 1
0 0 164
2 99 87 0 3
2 2 164
1 1 164
0 0 164
2 44 50 0 1
0 0 164
2 76 77 0 1
0 0 164
2 92 87 0 2
0 2 164
0 0 164
2 82 87 0 3
2 2 164
1 1 164
0 0 164
2 57 52 0 2
2 0 164
0 0 164
2 56 50 0 2
2 0 164
0 0 164
2 31 33 0 3
2 2 164
1 1 164
0 0 164
2 56 60 0 2
2 0 164
0 0 164
2 92 90 0 2
0 2 164
0 0 164
2 6 10 0 1
0 1 164
2 46 56 0 2
0 2 164
0 0 164
2 32 30 0 1
0 0 164
2 58 67 0 2
0 2 164
0 0 164
2 12 20 0 1
0 0 164
2 13 16 0 1
0 0 164
2 14 9 0 1
0 1 164
2 68 59 0 2
0 2 164
0 0 164
2 24 23 0 1
0 0 164
2 21 19 0 2
0 2 164
0 0 164
2 88 82 0 2
0 2 164
0 0 164
2 84 83 0 3
2 2 164
1 1 164
0 0 164
2 91 95 0 1
0 0 164
2 45 53 0 1
0 0 164
2 85 81 0 3
2 2 164
1 1 164
0 0 164
2 67 60 0 2
2 0 164
0 0 164
2 59 67 0 3
2 2 164
1 1 164
0 0 164
2 13 7 0 1
0 0 164
2 88 91 0 1
0 0 164
2 85 97 0 3
2 2 164
1 1 164
0 0 164
2 48 42 0 1
0 0 164
2 96 88 0 1
0 0 164
2 60 54 0 1
0 0 164
2 61 54 0 1
0 0 164
2 57 42 0 1
1 0 164
2 37 39 0 1
0 0 164
2 46 58 0 1
0 0 164
2 69 67 0 2
0 2 164
0 0 164
2 32 45 0 1
0 0 164
2 46 67 0 2
0 2 164
0 0 164
2 30 45 0 1
0 0 164
2 16 20 0 1
0 0 164
2 45 59 0 2
0 2 164
0 0 164
2 66 65 0 1
0 0 164
2 43 42 0 1
0 0 164
2 68 57 0 2
0 2 164
0 0 164
2 41 53 0 1
0 0 164
2 56 54 0 2
2 0 164
0 0 164
2 32 27 0 1
0 0 164
2 68 62 0 1
0 0 164
2 88 99 0 2
0 2 164
0 0 164
2 21 22 0 1
0 0 164
3 40 71 49 0 1
0 0 1 164
2 30 27 0 1
0 0 164
2 92 89 0 1
0 0 164
2 37 36 0 1
0 0 164
2 68 65 0 1
0 0 164
3 39 71 47 0 1
0 0 0 164
2 61 49 0 2
0 2 164
0 0 164
2 48 47 0 1
0 0 164
2 57 64 0 2
2 0 164
0 0 164
2 76 75 0 1
0 0 164
2 58 55 0 1
0 0 164
2 57 47 0 1
1 0 164
2 44 49 0 2
0 2 164
0 0 164
2 87 93 0 3
2 2 164
1 1 164
0 0 164
2 65 52 0 1
0 0 164
2 41 59 0 2
0 2 164
0 0 164
2 86 87 0 2
0 2 164
0 0 164
2 20 19 0 2
0 2 164
0 0 164
2 43 47 0 1
0 0 164
2 45 62 0 1
0 0 164
2 50 52 0 1
0 0 164
2 86 90 0 2
0 2 164
0 0 164
2 80 77 0 1
0 0 164
2 46 68 0 1
0 0 164
2 88 97 0 2
0 2 164
0 0 164
2 45 65 0 1
0 0 164
2 85 83 0 3
2 2 164
1 1 164
0 0 164
2 49 52 0 2
2 0 164
0 0 164
2 97 95 0 2
2 0 164
0 0 164
2 13 9 0 2
0 2 164
0 0 164
2 68 60 0 1
0 0 164
2 33 30 0 2
2 0 164
0 0 164
2 13 8 0 2
0 2 164
0 0 164
2 66 57 0 2
0 2 164
0 0 164
2 89 95 0 1
0 0 164
2 44 52 0 1
0 0 164
2 46 55 0 1
0 0 164
2 20 10 0 2
0 2 164
0 0 164
2 26 25 0 1
0 0 164
2 41 62 0 1
0 0 164
3 39 71 56 0 1
0 0 1 164
2 25 24 0 1
0 0 164
2 48 56 0 1
0 1 164
2 51 55 0 1
0 0 164
2 96 91 0 1
0 0 164
2 57 56 0 3
2 2 164
1 1 164
0 0 164
2 90 82 0 3
2 2 164
1 1 164
0 0 164
2 41 65 0 1
0 0 164
2 97 98 0 3
2 2 164
1 1 164
0 0 164
2 85 93 0 3
2 2 164
1 1 164
0 0 164
2 94 91 0 1
0 0 164
2 29 27 0 2
2 0 164
0 0 164
2 89 98 0 2
0 2 164
0 0 164
2 80 81 0 2
0 2 164
0 0 164
2 43 56 0 1
0 1 164
2 45 51 0 1
0 0 164
2 45 50 0 1
0 0 164
2 45 60 0 1
0 0 164
2 49 42 0 1
1 0 164
2 53 59 0 2
0 2 164
0 0 164
2 86 89 0 1
0 0 164
2 13 11 0 1
0 0 164
2 94 99 0 2
0 2 164
0 0 164
2 65 64 0 1
0 0 164
2 48 67 0 1
0 1 164
2 21 18 0 2
0 2 164
0 0 164
2 34 60 0 1
0 0 164
2 56 42 0 1
1 0 164
2 99 97 0 3
2 2 164
1 1 164
0 0 164
2 41 51 0 1
0 0 164
2 41 50 0 1
0 0 164
2 58 57 0 2
0 2 164
0 0 164
3 40 71 47 0 1
0 0 0 164
2 75 72 0 1
0 0 164
2 41 60 0 1
0 0 164
2 31 30 0 2
2 0 164
0 0 164
2 50 64 0 1
0 0 164
2 7 9 0 2
0 2 164
0 0 164
2 7 8 0 2
0 2 164
0 0 164
2 19 18 0 3
2 2 164
1 1 164
0 0 164
2 68 61 0 1
0 0 164
2 86 82 0 2
0 2 164
0 0 164
2 58 65 0 1
0 0 164
2 49 64 0 2
2 0 164
0 0 164
2 30 46 0 1
0 0 164
2 68 66 0 1
0 0 164
2 61 64 0 1
0 0 164
2 49 47 0 1
1 0 164
2 73 72 0 1
0 0 164
2 79 77 0 1
0 0 164
2 59 57 0 3
2 2 164
1 1 164
0 0 164
2 59 62 0 2
2 0 164
0 0 164
2 88 85 0 2
0 2 164
0 0 164
2 53 62 0 1
0 0 164
2 44 64 0 1
0 0 164
2 45 54 0 1
0 0 164
2 13 17 0 1
0 0 164
2 59 65 0 2
2 0 164
0 0 164
2 56 64 0 2
2 0 164
0 0 164
2 39 35 0 1
0 0 164
3 48 39 71 0 1
0 0 0 164
2 63 59 0 2
0 2 164
0 0 164
2 94 97 0 2
0 2 164
0 0 164
3 38 71 47 0 1
0 0 0 164
2 46 57 0 2
0 2 164
0 0 164
2 86 99 0 2
0 2 164
0 0 164
2 90 97 0 3
2 2 164
1 1 164
0 0 164
2 21 20 0 1
0 0 164
2 96 94 0 1
0 0 164
2 31 27 0 2
2 0 164
0 0 164
2 88 98 0 2
0 2 164
0 0 164
2 46 65 0 1
0 0 164
2 45 66 0 1
0 0 164
2 12 17 0 1
0 0 164
2 51 57 0 2
0 2 164
0 0 164
2 6 5 0 1
0 0 164
2 6 9 0 1
0 1 164
2 67 64 0 2
2 0 164
0 0 164
3 40 71 56 0 1
0 0 1 164
2 41 54 0 1
0 0 164
2 74 75 0 1
0 0 164
2 67 47 0 1
1 0 164
2 58 60 0 1
0 0 164
2 6 8 0 1
0 1 164
2 4 32 0 1
0 0 164
2 45 49 0 2
0 2 164
0 0 164
2 57 55 0 2
2 0 164
0 0 164
2 49 56 0 3
2 2 164
1 1 164
0 0 164
2 20 18 0 2
0 2 164
0 0 164
2 66 61 0 1
0 0 164
2 37 38 0 1
0 0 164
2 53 51 0 1
0 0 164
2 53 50 0 1
0 0 164
2 59 60 0 2
2 0 164
0 0 164
2 40 39 0 1
0 0 164
2 41 49 0 2
0 2 164
0 0 164
2 76 78 0 1
0 0 164
2 22 24 0 1
0 0 164
2 44 56 0 2
0 2 164
0 0 164
2 63 62 0 1
0 0 164
2 70 66 0 1
0 0 164
2 6 14 0 1
0 0 164
3 38 71 56 0 1
0 0 1 164
2 92 94 0 1
0 0 164
2 32 34 0 1
0 0 164
2 16 17 0 1
0 0 164
2 40 36 0 1
0 0 164
2 46 60 0 1
0 0 164
2 86 97 0 2
0 2 164
0 0 164
2 99 93 0 3
2 2 164
1 1 164
0 0 164
2 29 34 0 2
2 0 164
0 0 164
2 4 3 0 2
0 2 164
0 0 164
2 89 87 0 2
0 2 164
0 0 164
2 58 54 0 1
0 0 164
2 90 83 0 3
2 2 164
1 1 164
0 0 164
2 44 58 0 1
0 0 164
2 77 78 0 1
0 0 164
3 39 71 59 0 1
0 0 1 164
2 19 8 0 3
2 2 164
1 1 164
0 0 164
2 11 16 0 1
0 0 164
2 45 44 0 1
0 0 164
2 44 67 0 2
0 2 164
0 0 164
2 27 44 0 1
0 0 164
3 48 40 71 0 1
0 0 0 164
2 68 69 0 1
0 0 164
2 23 17 0 1
0 0 164
2 59 54 0 2
2 0 164
0 0 164
2 89 88 0 1
0 0 164
2 94 85 0 2
0 2 164
0 0 164
2 63 51 0 1
0 0 164
2 63 50 0 1
0 0 164
2 11 7 0 1
0 0 164
2 86 84 0 2
0 2 164
0 0 164
2 13 19 0 2
0 2 164
0 0 164
2 94 93 0 2
0 2 164
0 0 164
2 90 93 0 3
2 2 164
1 1 164
0 0 164
2 58 49 0 2
0 2 164
0 0 164
2 81 82 0 3
2 2 164
1 1 164
0 0 164
2 41 44 0 1
0 0 164
2 55 62 0 1
0 0 164
2 46 54 0 1
0 0 164
2 96 98 0 2
0 2 164
0 0 164
2 74 73 0 1
0 0 164
2 68 63 0 1
0 0 164
2 48 57 0 1
0 1 164
2 10 5 0 1
1 0 164
2 10 9 0 3
2 2 164
1 1 164
0 0 164
2 59 49 0 3
2 2 164
1 1 164
0 0 164
2 13 10 0 2
0 2 164
0 0 164
2 51 52 0 1
0 0 164
2 53 49 0 2
0 2 164
0 0 164
2 86 83 0 2
0 2 164
0 0 164
2 44 68 0 1
0 0 164
2 17 10 0 2
0 2 164
0 0 164
2 92 95 0 1
0 0 164
2 2 3 0 3
2 2 164
1 1 164
0 0 164
2 46 61 0 1
0 0 164
2 28 32 0 2
2 0 164
0 0 164
2 46 66 0 1
0 0 164
2 57 65 0 2
2 0 164
0 0 164
2 26 24 0 1
0 0 164
2 49 55 0 2
2 0 164
0 0 164
2 60 55 0 1
0 0 164
2 61 55 0 1
0 0 164
2 43 57 0 1
0 1 164
2 45 64 0 1
0 0 164
2 66 56 0 2
0 2 164
0 0 164
2 44 55 0 1
0 0 164
2 93 98 0 3
2 2 164
1 1 164
0 0 164
2 12 10 0 2
0 2 164
0 0 164
2 86 85 0 2
0 2 164
0 0 164
2 10 14 0 1
1 0 164
2 88 87 0 2
0 2 164
0 0 164
2 96 92 0 1
0 0 164
2 56 55 0 2
2 0 164
0 0 164
2 45 63 0 1
0 0 164
2 27 46 0 1
0 0 164
2 70 69 0 1
0 0 164
2 92 98 0 2
0 2 164
0 0 164
2 53 52 0 1
0 0 164
2 86 93 0 2
0 2 164
0 0 164
2 64 52 0 1
0 0 164
2 71 72 0 1
0 0 164
2 21 23 0 1
0 0 164
2 15 5 0 1
0 0 164
2 15 9 0 1
0 1 164
2 88 90 0 2
0 2 164
0 0 164
2 15 8 0 1
0 1 164
2 41 64 0 1
0 0 164
2 89 82 0 2
0 2 164
0 0 164
2 84 82 0 3
2 2 164
1 1 164
0 0 164
2 11 9 0 2
0 2 164
0 0 164
2 66 63 0 1
0 0 164
2 36 38 0 1
0 0 164
2 57 60 0 2
2 0 164
0 0 164
2 63 49 0 2
0 2 164
0 0 164
2 89 91 0 1
0 0 164
2 41 63 0 1
0 0 164
2 66 67 0 2
0 2 164
0 0 164
2 89 97 0 2
0 2 164
0 0 164
2 16 10 0 2
0 2 164
0 0 164
2 23 19 0 2
0 2 164
0 0 164
2 29 32 0 2
2 0 164
0 0 164
2 15 14 0 1
0 0 164
2 2 1 0 3
2 2 164
1 1 164
0 0 164
2 46 44 0 1
0 0 164
2 59 42 0 1
1 0 164
2 89 99 0 2
0 2 164
0 0 164
2 30 60 0 1
0 0 164
2 63 52 0 1
0 0 164
2 21 17 0 1
0 0 164
2 31 34 0 2
2 0 164
0 0 164
3 40 71 57 0 1
0 0 1 164
2 86 95 0 1
0 0 164
2 50 62 0 1
0 0 164
2 57 54 0 2
2 0 164
0 0 164
2 61 57 0 2
0 2 164
0 0 164
2 99 90 0 3
2 2 164
1 1 164
0 0 164
2 40 38 0 1
0 0 164
2 79 78 0 1
0 0 164
2 50 65 0 1
0 0 164
2 8 5 0 1
1 0 164
2 53 64 0 1
0 0 164
2 44 57 0 2
0 2 164
0 0 164
2 13 18 0 2
0 2 164
0 0 164
2 49 65 0 2
2 0 164
0 0 164
2 84 81 0 3
2 2 164
1 1 164
0 0 164
2 96 87 0 2
0 2 164
0 0 164
2 54 52 0 1
0 0 164
2 17 18 0 2
0 2 164
0 0 164
2 13 4 0 1
0 0 164
2 44 65 0 1
0 0 164
2 22 19 0 2
0 2 164
0 0 164
2 29 28 0 3
2 2 164
1 1 164
0 0 164
3 38 71 57 0 1
0 0 1 164
2 51 56 0 2
0 2 164
0 0 164
3 39 71 49 0 1
0 0 1 164
2 5 9 0 1
0 1 164
2 94 87 0 2
0 2 164
0 0 164
2 96 99 0 2
0 2 164
0 0 164
2 11 17 0 1
0 0 164
2 96 90 0 2
0 2 164
0 0 164
2 90 87 0 3
2 2 164
1 1 164
0 0 164
2 12 18 0 2
0 2 164
0 0 164
2 94 90 0 2
0 2 164
0 0 164
2 12 16 0 1
0 0 164
2 31 32 0 2
2 0 164
0 0 164
2 46 63 0 1
0 0 164
2 43 49 0 1
0 1 164
2 91 98 0 2
0 2 164
0 0 164
2 45 68 0 1
0 0 164
2 55 52 0 1
0 0 164
2 89 84 0 2
0 2 164
0 0 164
2 46 41 0 1
0 0 164
2 45 55 0 1
0 0 164
2 12 7 0 1
0 0 164
2 49 60 0 2
2 0 164
0 0 164
2 13 20 0 1
0 0 164
2 53 56 0 2
0 2 164
0 0 164
2 44 51 0 1
0 0 164
2 63 64 0 1
0 0 164
2 51 58 0 1
0 0 164
2 44 60 0 1
0 0 164
2 13 12 0 1
0 0 164
2 4 30 0 1
0 0 164
2 85 84 0 3
2 2 164
1 1 164
0 0 164
2 16 18 0 2
0 2 164
0 0 164
2 66 59 0 2
0 2 164
0 0 164
2 4 10 0 2
0 2 164
0 0 164
2 92 88 0 1
0 0 164
2 65 54 0 1
0 0 164
2 96 89 0 1
0 0 164
2 89 83 0 2
0 2 164
0 0 164
2 41 55 0 1
0 0 164
2 13 21 0 1
0 0 164
2 53 58 0 1
0 0 164
2 37 35 0 1
0 0 164
2 50 54 0 1
0 0 164
2 23 18 0 2
0 2 164
0 0 164
2 31 28 0 3
2 2 164
1 1 164
0 0 164
2 60 52 0 1
0 0 164
2 61 52 0 1
0 0 164
2 49 54 0 2
2 0 164
0 0 164
2 28 30 0 2
2 0 164
0 0 164
2 89 85 0 2
0 2 164
0 0 164
2 32 44 0 1
0 0 164
2 4 27 0 1
0 0 164
2 30 44 0 1
0 0 164
2 97 93 0 3
2 2 164
1 1 164
0 0 164
2 63 56 0 2
0 2 164
0 0 164
2 66 62 0 1
0 0 164
2 44 54 0 1
0 0 164
2 12 34 0 1
0 0 164
2 21 10 0 2
0 2 164
0 0 164
2 89 93 0 2
0 2 164
0 0 164
2 17 9 0 2
0 2 164
0 0 164
2 17 8 0 2
0 2 164
0 0 164
2 56 52 0 2
2 0 164
0 0 164
2 15 19 0 1
0 1 164
2 13 34 0 1
0 0 164
2 31 29 0 3
2 2 164
1 1 164
0 0 164
2 55 64 0 1
0 0 164
2 11 19 0 2
0 2 164
0 0 164
2 12 9 0 2
0 2 164
0 0 164
2 58 59 0 2
0 2 164
0 0 164
2 88 84 0 2
0 2 164
0 0 164
2 12 8 0 2
0 2 164
0 0 164
2 44 61 0 1
0 0 164
2 44 66 0 1
0 0 164
2 27 50 0 1
0 0 164
2 46 53 0 1
0 0 164
2 27 60 0 1
0 0 164
2 28 27 0 2
2 0 164
0 0 164
2 15 10 0 1
0 1 164
2 63 58 0 1
0 0 164
2 63 67 0 2
0 2 164
0 0 164
2 33 27 0 2
2 0 164
0 0 164
2 26 22 0 1
0 0 164
2 11 10 0 2
0 2 164
0 0 164
2 45 57 0 2
0 2 164
0 0 164
2 29 30 0 2
2 0 164
0 0 164
2 59 55 0 2
2 0 164
0 0 164
3 38 71 49 0 1
0 0 1 164
2 53 55 0 1
0 0 164
2 22 18 0 2
0 2 164
0 0 164
2 66 60 0 1
0 0 164
2 88 83 0 2
0 2 164
0 0 164
2 16 9 0 2
0 2 164
0 0 164
2 46 59 0 2
0 2 164
0 0 164
2 92 91 0 1
0 0 164
2 86 88 0 1
0 0 164
2 16 8 0 2
0 2 164
0 0 164
2 58 62 0 1
0 0 164
2 32 46 0 1
0 0 164
2 83 87 0 3
2 2 164
1 1 164
0 0 164
2 12 11 0 1
0 0 164
2 60 64 0 1
0 0 164
2 91 87 0 2
0 2 164
0 0 164
2 51 59 0 2
0 2 164
0 0 164
2 88 94 0 1
0 0 164
2 41 57 0 2
0 2 164
0 0 164
2 91 90 0 2
0 2 164
0 0 164
2 85 95 0 2
2 0 164
0 0 164
2 96 97 0 2
0 2 164
0 0 164
2 88 93 0 2
0 2 164
0 0 164
2 4 16 0 1
0 0 164
2 56 47 0 1
1 0 164
2 92 99 0 2
0 2 164
0 0 164
2 46 62 0 1
0 0 164
2 22 20 0 1
0 0 164
2 4 7 0 1
0 0 164
2 63 55 0 1
0 0 164
2 58 50 0 1
0 0 164
2 51 62 0 1
0 0 164
2 10 18 0 3
2 2 164
1 1 164
0 0 164
2 87 95 0 2
2 0 164
0 0 164
2 51 65 0 1
0 0 164
2 61 56 0 2
0 2 164
0 0 164
2 59 50 0 2
2 0 164
0 0 164
2 21 16 0 1
0 0 164
2 36 35 0 1
0 0 164
2 92 97 0 2
0 2 164
0 0 164
2 25 23 0 1
0 0 164
2 90 84 0 3
2 2 164
1 1 164
0 0 164
2 87 98 0 3
2 2 164
1 1 164
0 0 164
2 53 57 0 2
0 2 164
0 0 164
2 64 62 0 1
0 0 164
2 46 51 0 1
0 0 164
2 46 50 0 1
0 0 164
2 86 91 0 1
0 0 164
2 88 95 0 1
0 0 164
2 45 52 0 1
0 0 164
2 15 18 0 1
0 1 164
2 53 65 0 1
0 0 164
2 51 50 0 1
0 0 164
2 61 58 0 1
0 0 164
2 44 63 0 1
0 0 164
2 84 87 0 3
2 2 164
1 1 164
0 0 164
2 61 67 0 2
0 2 164
0 0 164
2 67 56 0 3
2 2 164
1 1 164
0 0 164
2 11 18 0 2
0 2 164
0 0 164
2 51 60 0 1
0 0 164
2 74 71 0 1
0 0 164
2 83 82 0 3
2 2 164
1 1 164
0 0 164
2 48 59 0 1
0 1 164
2 89 90 0 2
0 2 164
0 0 164
2 96 85 0 2
0 2 164
0 0 164
2 45 61 0 1
0 0 164
2 3 7 0 2
2 0 164
0 0 164
2 41 52 0 1
0 0 164
2 27 45 0 1
0 0 164
2 4 9 0 2
0 2 164
0 0 164
2 96 93 0 2
0 2 164
0 0 164
2 40 35 0 1
0 0 164
2 4 8 0 2
0 2 164
0 0 164
2 43 59 0 1
0 1 164
2 68 64 0 1
0 0 164
2 17 19 0 2
0 2 164
0 0 164
2 4 34 0 1
0 0 164
2 63 57 0 2
0 2 164
0 0 164
2 53 60 0 1
0 0 164
2 3 6 0 1
1 0 164
2 41 61 0 1
0 0 164
2 95 98 0 2
0 2 164
0 0 164
2 34 27 0 1
0 0 164
1 0 0 1
3 1
1 1 0 1
3 1
1 2 0 1
3 1
1 3 0 1
3 1
1 4 0 1
1 2
1 5 0 1
1 1
1 6 0 1
1 1
1 7 0 1
1 2
1 8 0 1
3 1
1 9 0 1
3 1
1 10 0 1
3 1
1 11 0 1
1 2
1 12 0 1
1 2
1 13 0 1
1 2
1 14 0 1
1 1
1 15 0 1
1 1
1 16 0 1
1 2
1 17 0 1
1 2
1 18 0 1
3 1
1 19 0 1
3 1
1 20 0 1
1 2
1 21 0 1
1 2
1 22 0 1
1 2
1 23 0 1
1 2
1 24 0 1
1 2
1 25 0 1
1 2
1 26 0 1
1 2
1 27 0 1
1 2
1 28 0 1
3 1
1 29 0 1
3 1
1 30 0 1
1 2
1 31 0 1
3 1
1 32 0 1
1 2
1 33 0 1
3 1
1 34 0 1
1 2
1 35 0 1
1 2
1 36 0 1
1 2
1 37 0 1
1 2
1 38 0 1
1 2
1 39 0 1
1 2
1 40 0 1
1 2
1 41 0 1
1 2
1 42 0 1
1 1
1 43 0 1
1 1
1 44 0 1
1 2
1 45 0 1
1 2
1 46 0 1
1 2
1 47 0 1
1 1
1 48 0 1
1 1
1 49 0 1
3 1
1 50 0 1
1 2
1 51 0 1
1 2
1 52 0 1
1 2
1 53 0 1
1 2
1 54 0 1
1 2
1 55 0 1
1 2
1 56 0 1
3 1
1 57 0 1
3 1
1 58 0 1
1 2
1 59 0 1
3 1
1 60 0 1
1 2
1 61 0 1
1 2
1 62 0 1
1 2
1 63 0 1
1 2
1 64 0 1
1 2
1 65 0 1
1 2
1 66 0 1
1 2
1 67 0 1
3 1
1 68 0 1
1 2
1 69 0 1
1 2
1 70 0 1
1 2
1 71 0 1
1 2
1 72 0 1
1 2
1 73 0 1
1 2
1 74 0 1
1 2
1 75 0 1
1 2
1 76 0 1
1 2
1 77 0 1
1 2
1 78 0 1
1 2
1 79 0 1
1 2
1 80 0 1
1 2
1 81 0 1
3 1
1 82 0 1
3 1
1 83 0 1
3 1
1 84 0 1
3 1
1 85 0 1
3 1
1 86 0 1
1 2
1 87 0 1
3 1
1 88 0 1
1 2
1 89 0 1
1 2
1 90 0 1
3 1
1 91 0 1
1 2
1 92 0 1
1 2
1 93 0 1
3 1
1 94 0 1
1 2
1 95 0 1
1 2
1 96 0 1
1 2
1 97 0 1
3 1
1 98 0 1
3 1
1 99 0 1
3 1
